n = 100;
C = 24028;
w = [830,579,81,238,435,192,918,816,554,423,186,106,258,513,548,571,195,254,431,409,347,85,555,28,722,424,330,703,534,789,581,394,623,790,133,755,292,210,658,64,612,650,527,110,526,36,236,638,578,531,826,722,437,622,739,252,57,293,744,816,387,543,432,213,491,982,808,376,688,769,821,625,857,169,68,620,5,453,675,113,532,574,421,20,683,563,890,830,316,95,172,402,539,910,587,873,603,204,434,807];
p = [922,602,79,203,363,149,922,741,594,356,258,28,292,421,570,516,184,345,419,313,412,95,592,82,740,376,336,782,534,785,592,435,625,838,104,716,299,194,674,54,639,713,519,83,510,87,275,562,580,519,877,633,415,535,745,338,93,280,831,748,476,582,377,294,577,902,779,369,747,804,836,653,758,91,23,696,-87,367,581,211,538,515,369,69,605,643,916,831,321,116,239,463,564,985,661,799,508,125,375,789];
